language Essence 1.3

letting class be function(1 --> 1, 2 --> 2, 3 --> 2)
letting deck_length be 21
letting deck_width be 82
letting length be function(1 --> 21, 2 --> 11, 3 --> 15)
letting n_classes be 2
letting n_containers be 3
letting separation be function({1, 2} --> 52)
letting width be function(1 --> 5, 2 --> 4, 3 --> 21)
